<?xml version = "1.0" standalone="yes"?>
<!-- This file has been generated by DOcplex version 2.23.222  -->
<CPLEXSolution version="1.0">
 <header
   problemName="CVRP"
   objectiveValue="13919.1"
  />
 <variables>
  <variable name="x_0_3" index="2" value="1.00000"/>
  <variable name="x_0_6" index="5" value="1.00000"/>
  <variable name="x_0_7" index="6" value="1.00000"/>
  <variable name="x_0_8" index="7" value="1.00000"/>
  <variable name="x_0_10" index="9" value="1.00000"/>
  <variable name="x_0_11" index="10" value="1.00000"/>
  <variable name="x_0_13" index="12" value="1.00000"/>
  <variable name="x_0_14" index="13" value="1.00000"/>
  <variable name="x_0_15" index="14" value="1.00000"/>
  <variable name="x_0_16" index="15" value="1.00000"/>
  <variable name="x_1_0" index="16" value="1.00000"/>
  <variable name="x_2_0" index="32" value="1.00000"/>
  <variable name="x_3_0" index="48" value="1.00000"/>
  <variable name="x_4_0" index="64" value="1.00000"/>
  <variable name="x_5_4" index="84" value="1.00000"/>
  <variable name="x_6_2" index="98" value="1.00000"/>
  <variable name="x_7_0" index="112" value="1.00000"/>
  <variable name="x_8_0" index="128" value="1.00000"/>
  <variable name="x_9_0" index="144" value="1.00000"/>
  <variable name="x_10_12" index="171" value="1.00000"/>
  <variable name="x_11_9" index="185" value="1.00000"/>
  <variable name="x_12_0" index="192" value="1.00000"/>
  <variable name="x_13_5" index="213" value="1.00000"/>
  <variable name="x_14_0" index="224" value="1.00000"/>
  <variable name="x_15_0" index="240" value="1.00000"/>
  <variable name="x_16_1" index="257" value="1.00000"/>
  <variable name="u_1" index="272" value="44.00000"/>
  <variable name="u_2" index="273" value="39.00000"/>
  <variable name="u_3" index="274" value="44.00000"/>
  <variable name="u_4" index="275" value="42.00000"/>
  <variable name="u_5" index="276" value="38.00000"/>
  <variable name="u_6" index="277" value="5.00000"/>
  <variable name="u_7" index="278" value="44.00000"/>
  <variable name="u_8" index="279" value="37.00000"/>
  <variable name="u_9" index="280" value="31.00000"/>
  <variable name="u_10" index="281" value="25.00000"/>
  <variable name="u_11" index="282" value="17.00000"/>
  <variable name="u_12" index="283" value="40.00000"/>
  <variable name="u_13" index="284" value="7.00000"/>
  <variable name="u_14" index="285" value="44.00000"/>
  <variable name="u_15" index="286" value="44.00000"/>
  <variable name="u_16" index="287" value="14.00000"/>
 </variables>
</CPLEXSolution>
